CMPL model generation - running

CMPL version: 1.11.0
Authors: Thomas Schleiff, Mike Steglich
Distributed under the GPLv3 

create model instance ...
write model instance ...
CMPL model generation - finished

Solver - running


Welcome to IBM(R) ILOG(R) CPLEX(R) Interactive Optimizer 12.7.1.0
  with Simplex, Mixed Integer & Barrier Optimizers
5725-A06 5725-A29 5724-Y48 5724-Y49 5724-Y54 5724-Y55 5655-Y21
Copyright IBM Corp. 1988, 2017.  All Rights Reserved.

Type 'help' for a list of available commands.
Type 'help' followed by a command name for more
information on commands.

CPLEX> Specified objective sense: MINIMIZE
Selected objective  name:  line[1]
Selected RHS        name:  RHS
Selected bound      name:  BOUND
Problem '/tmp/cmpl.T24334.mps' read.
Read time = 0.05 sec. (8.18 ticks)
CPLEX> CPXPARAM_Read_APIEncoding                        "UTF-8"
Tried aggregator 3 times.
MIP Presolve eliminated 19169 rows and 30571 columns.
MIP Presolve modified 340 coefficients.
Aggregator did 672 substitutions.
Reduced MIP has 2514 rows, 3350 columns, and 9764 nonzeros.
Reduced MIP has 3182 binaries, 0 generals, 0 SOSs, and 0 indicators.
Presolve time = 0.05 sec. (42.01 ticks)
Found incumbent of value 883.195065 after 0.10 sec. (71.61 ticks)
Probing fixed 12 vars, tightened 0 bounds.
Probing time = 0.01 sec. (4.39 ticks)
Tried aggregator 1 time.
MIP Presolve eliminated 0 rows and 12 columns.
MIP Presolve modified 60 coefficients.
Reduced MIP has 2514 rows, 3338 columns, and 9740 nonzeros.
Reduced MIP has 3338 binaries, 0 generals, 0 SOSs, and 0 indicators.
Presolve time = 0.01 sec. (8.27 ticks)
Probing time = 0.01 sec. (2.69 ticks)
Clique table members: 6020.
MIP emphasis: balance optimality and feasibility.
MIP search method: dynamic search.
Parallel mode: none, using 1 thread.
Root relaxation solution time = 0.01 sec. (5.30 ticks)

        Nodes                                         Cuts/
   Node  Left     Objective  IInf  Best Integer    Best Bound    ItCnt     Gap

*     0+    0                          883.1951      -32.3694           103.67%
      0     0      266.9565     4      883.1951      266.9565      201   69.77%
*     0+    0                          270.9045      266.9565             1.46%
*     0+    0                          267.0708      266.9565             0.04%
*     0     0      integral     0      267.0430       Cuts: 6      203    0.00%
      0     0        cutoff            267.0430      267.0430      203    0.00%
Elapsed time = 0.16 sec. (111.57 ticks, tree = 0.01 MB, solutions = 4)

Cover cuts applied:  4
Gomory fractional cuts applied:  2

Root node processing (before b&c):
  Real time             =    0.16 sec. (113.28 ticks)
Sequential b&c:
  Real time             =    0.00 sec. (0.00 ticks)
                          ------------
Total (root+branch&cut) =    0.16 sec. (113.28 ticks)

Solution pool: 4 solutions saved.

MIP - Integer optimal solution:  Objective =  2.6704300200e+02
Solution time =    0.16 sec.  Iterations = 203  Nodes = 0
Deterministic time = 113.38 ticks  (694.17 ticks/sec)

CPLEX> Incumbent solution written to file '/tmp/cmpl.T24334.gsol'.
CPLEX> 
CMPL: Time used for model generation: 0 seconds
CMPL: Time used for solving the model: 1 seconds


Solution written to ASCII file: results/output_generated_conf_0.6/2017-04-03-4/fair-nonlinear.sol

Solver - finished
